% empty model can be copy-pasted and changed to make toy examples

nLab = 3;
nZone = 2;
nTime = 5;
sample_lifetime = 0;

capacity =
  [|1,1,1,1,1  % lab1 -> [t1,...
   |1,1,1,1,1
   |1,1,1,1,1
   |];
  
transit =
  [|0,0,0   % zone1 -> lab1,lab2...
   |0,0,0   % zone2 -> ...
   |];
   
demand =
  [|0,0,0,0,0     % zone1 -> [t1,t2,...
   |0,0,0,0,0     % zone2 -> ...
   |];
  
